BAYES
100
2 2 2 2 2 2 2 2 2 2 2 2 2 2 2 2 2 2 2 2 2 2 2 2 2 2 2 2 2 2 2 2 2 2 2 2 2 2 2 2 2 2 2 2 2 2 2 2 2 2 2 2 2 2 2 2 2 2 2 2 2 2 2 2 2 2 2 2 2 2 2 2 2 2 2 2 2 2 2 2 2 2 2 2 2 2 2 2 2 2 2 2 2 2 2 2 2 2 2 2 
100
6 70 19 5 54 64 0
4 96 71 5 1
2 60 2
7 96 16 56 54 35 29 3
4 70 53 93 4
2 42 5
3 52 2 6
3 24 76 7
3 83 42 8
5 77 41 91 10 9
3 55 22 10
3 75 5 11
3 28 53 12
4 53 28 26 13
4 44 32 61 14
2 16 15
3 60 65 16
4 92 2 91 17
3 93 82 18
1 19
5 0 8 81 3 20
2 93 21
1 22
4 86 8 80 23
1 24
3 31 83 25
1 26
4 64 60 51 27
3 83 14 28
2 82 29
4 68 44 42 30
1 31
2 9 32
7 13 63 39 56 37 70 33
3 51 42 34
3 46 88 35
3 61 17 36
2 46 37
4 35 31 18 38
2 44 39
3 18 34 40
1 41
3 92 48 42
2 54 43
2 2 44
2 13 45
3 90 92 46
3 61 49 47
1 48
2 90 49
5 52 97 25 35 50
6 31 26 65 90 49 51
3 91 32 52
1 53
5 68 58 77 24 54
2 16 55
2 77 56
2 98 57
3 5 12 58
2 42 59
1 60
1 61
3 47 41 62
2 60 63
7 39 56 83 18 80 54 64
1 65
2 53 66
5 73 61 53 24 67
2 16 68
4 29 9 11 69
2 69 70
2 18 71
4 7 53 25 72
3 29 99 73
2 85 74
3 64 94 75
4 92 28 82 76
2 92 77
4 33 76 73 78
4 84 56 52 79
5 24 15 44 32 80
4 50 57 30 81
5 15 5 32 98 82
2 2 83
6 86 37 15 43 67 84
3 55 5 85
1 86
2 61 87
3 77 58 88
5 1 59 8 86 89
2 91 90
3 44 22 91
1 92
1 93
3 17 46 94
4 46 60 72 95
2 6 96
4 36 24 69 97
4 53 87 5 98
3 39 38 99

64
 0.5 0.5
 0.5 0.5
 0.5 0.5
 0.5 0.5
 0.5 0.5
 0.5 0.5
 0.5 0.5
 0.5 0.5
 0.0 1.0
 0.5 0.5
 0.0 1.0
 0.0 1.0
 0.5 0.5
 0.5 0.5
 0.5 0.5
 0.5 0.5
 0.5 0.5
 0.5 0.5
 0.5 0.5
 0.5 0.5
 0.5 0.5
 0.5 0.5
 0.5 0.5
 0.5 0.5
 0.5 0.5
 0.5 0.5
 0.0 1.0
 0.0 1.0
 0.0 1.0
 0.5 0.5
 0.5 0.5
 0.0 1.0

16
 0.375 0.625
 1.0 0.0
 0.5 0.5
 0.5 0.5
 0.0 1.0
 0.5 0.5
 0.4 0.6
 0.0 1.0

4
 0.5 0.5
 0.9 0.09999999999999998

128
 0.5 0.5
 0.5 0.5
 0.5 0.5
 0.5 0.5
 0.0 1.0
 0.5 0.5
 0.5 0.5
 0.5 0.5
 1.0 0.0
 0.5 0.5
 0.5 0.5
 0.5 0.5
 0.0 1.0
 0.5 0.5
 0.0 1.0
 0.0 1.0
 0.0 1.0
 0.5 0.5
 0.5 0.5
 0.5 0.5
 0.5 0.5
 0.5 0.5
 0.5 0.5
 0.5 0.5
 0.0 1.0
 0.5 0.5
 0.5 0.5
 0.5 0.5
 0.5 0.5
 0.5 0.5
 0.5 0.5
 0.5 0.5
 0.5 0.5
 0.5 0.5
 0.5 0.5
 0.5 0.5
 0.5 0.5
 0.5 0.5
 0.5 0.5
 0.5 0.5
 0.5 0.5
 1.0 0.0
 1.0 0.0
 0.0 1.0
 1.0 0.0
 0.5 0.5
 0.5 0.5
 0.5 0.5
 0.0 1.0
 0.5 0.5
 0.5 0.5
 0.5 0.5
 0.5 0.5
 0.5 0.5
 0.5 0.5
 0.5 0.5
 0.0 1.0
 0.5 0.5
 0.5 0.5
 0.5 0.5
 0.5 0.5
 0.5 0.5
 0.5 0.5
 0.5 0.5

16
 0.5 0.5
 0.5 0.5
 0.5 0.5
 0.6 0.4
 0.5 0.5
 0.5 0.5
 0.6 0.4
 0.6 0.4

4
 0.9444444444444444 0.05555555555555558
 0.0 1.0

8
 1.0 0.0
 0.5 0.5
 1.0 0.0
 1.0 0.0

8
 0.5 0.5
 0.0 1.0
 0.6 0.4
 0.7272727272727273 0.2727272727272727

8
 0.5 0.5
 0.5 0.5
 0.6666666666666666 0.33333333333333337
 0.0 1.0

32
 1.0 0.0
 0.0 1.0
 0.0 1.0
 0.5 0.5
 0.5 0.5
 0.5 0.5
 0.5 0.5
 0.5 0.5
 0.5 0.5
 0.5 0.5
 0.6666666666666666 0.33333333333333337
 0.5 0.5
 0.0 1.0
 0.5 0.5
 0.5 0.5
 0.5 0.5

8
 0.6 0.4
 0.5 0.5
 0.4666666666666667 0.5333333333333333
 0.5 0.5

8
 0.3333333333333333 0.6666666666666667
 0.5 0.5
 0.18181818181818182 0.8181818181818181
 0.0 1.0

8
 0.5 0.5
 0.6 0.4
 0.5 0.5
 0.0 1.0

16
 0.5 0.5
 0.5 0.5
 0.5 0.5
 0.5 0.5
 0.8 0.19999999999999996
 0.5 0.5
 0.25 0.75
 0.5 0.5

16
 0.6 0.4
 1.0 0.0
 1.0 0.0
 0.3333333333333333 0.6666666666666667
 1.0 0.0
 0.0 1.0
 0.5 0.5
 0.5 0.5

4
 1.0 0.0
 0.0 1.0

8
 0.5 0.5
 0.5 0.5
 1.0 0.0
 0.3333333333333333 0.6666666666666667

16
 0.5 0.5
 0.2 0.8
 0.5 0.5
 0.0 1.0
 1.0 0.0
 0.5 0.5
 0.5 0.5
 0.5 0.5

8
 0.0 1.0
 0.0 1.0
 0.2857142857142857 0.7142857142857143
 1.0 0.0

2
 0.0 1.0

32
 0.5 0.5
 0.5 0.5
 0.5 0.5
 0.5 0.5
 0.5 0.5
 0.5 0.5
 0.0 1.0
 0.5 0.5
 0.5 0.5
 0.3333333333333333 0.6666666666666667
 0.5 0.5
 1.0 0.0
 0.5 0.5
 0.5 0.5
 0.5 0.5
 0.5 0.5

4
 0.2 0.8
 0.7333333333333333 0.2666666666666667

2
 1.0 0.0

16
 0.8 0.19999999999999996
 0.6 0.4
 1.0 0.0
 0.3333333333333333 0.6666666666666667
 0.5 0.5
 0.5 0.5
 1.0 0.0
 0.5 0.5

2
 0.2 0.8

8
 1.0 0.0
 0.0 1.0
 0.6666666666666666 0.33333333333333337
 1.0 0.0

2
 0.9 0.09999999999999998

16
 0.5 0.5
 0.5 0.5
 0.0 1.0
 1.0 0.0
 0.5 0.5
 0.5 0.5
 0.16666666666666666 0.8333333333333334
 0.3333333333333333 0.6666666666666667

8
 0.6 0.4
 1.0 0.0
 0.0 1.0
 0.3333333333333333 0.6666666666666667

4
 0.75 0.25
 0.6666666666666666 0.33333333333333337

16
 0.6153846153846154 0.3846153846153846
 0.0 1.0
 0.6666666666666666 0.33333333333333337
 0.5 0.5
 0.0 1.0
 0.5 0.5
 0.5 0.5
 0.5 0.5

2
 0.4 0.6

4
 0.75 0.25
 0.5 0.5

128
 0.5 0.5
 0.5 0.5
 0.5 0.5
 0.5 0.5
 0.5 0.5
 1.0 0.0
 0.5 0.5
 1.0 0.0
 0.5 0.5
 0.5 0.5
 0.5 0.5
 0.5 0.5
 1.0 0.0
 0.5 0.5
 0.5 0.5
 1.0 0.0
 0.5 0.5
 0.5 0.5
 0.5 0.5
 0.5 0.5
 0.5 0.5
 1.0 0.0
 0.5 0.5
 0.5 0.5
 0.5 0.5
 0.5 0.5
 0.5 0.5
 0.5 0.5
 0.5 0.5
 0.5 0.5
 0.5 0.5
 0.5 0.5
 0.5 0.5
 0.5 0.5
 0.5 0.5
 0.5 0.5
 0.5 0.5
 1.0 0.0
 0.5 0.5
 0.5 0.5
 0.5 0.5
 0.5 0.5
 0.0 1.0
 0.0 1.0
 0.5 0.5
 0.5 0.5
 0.0 1.0
 0.0 1.0
 0.5 0.5
 0.5 0.5
 0.5 0.5
 0.5 0.5
 0.5 0.5
 1.0 0.0
 0.5 0.5
 0.5 0.5
 0.5 0.5
 1.0 0.0
 0.5 0.5
 0.5 0.5
 1.0 0.0
 0.5 0.5
 0.5 0.5
 0.0 1.0

8
 0.5 0.5
 0.5 0.5
 0.75 0.25
 0.0 1.0

8
 0.0 1.0
 0.75 0.25
 0.5 0.5
 0.42857142857142855 0.5714285714285714

8
 0.3333333333333333 0.6666666666666667
 0.6 0.4
 0.5 0.5
 0.25 0.75

4
 0.45454545454545453 0.5454545454545454
 0.5555555555555556 0.4444444444444444

16
 1.0 0.0
 1.0 0.0
 0.0 1.0
 0.0 1.0
 1.0 0.0
 0.0 1.0
 0.0 1.0
 0.0 1.0

4
 0.23529411764705882 0.7647058823529411
 0.3333333333333333 0.6666666666666667

8
 0.5 0.5
 1.0 0.0
 1.0 0.0
 0.7142857142857143 0.2857142857142857

2
 0.8 0.19999999999999996

8
 1.0 0.0
 1.0 0.0
 0.5 0.5
 0.0 1.0

4
 1.0 0.0
 0.5 0.5

4
 0.8333333333333334 0.16666666666666663
 1.0 0.0

4
 1.0 0.0
 1.0 0.0

8
 0.3333333333333333 0.6666666666666667
 0.5 0.5
 0.6666666666666666 0.33333333333333337
 0.0 1.0

8
 0.75 0.25
 0.5 0.5
 0.08333333333333333 0.9166666666666666
 0.5 0.5

2
 0.1 0.9

4
 1.0 0.0
 0.7647058823529411 0.23529411764705888

32
 0.0 1.0
 0.0 1.0
 0.5 0.5
 0.5 0.5
 0.0 1.0
 0.0 1.0
 0.5 0.5
 0.0 1.0
 0.5 0.5
 0.0 1.0
 0.0 1.0
 0.5 0.5
 0.5 0.5
 0.0 1.0
 0.5 0.5
 0.5 0.5

64
 0.5 0.5
 0.5 0.5
 0.0 1.0
 0.0 1.0
 0.5 0.5
 0.5 0.5
 0.0 1.0
 0.5 0.5
 0.5 0.5
 0.5 0.5
 1.0 0.0
 0.5 0.5
 0.5 0.5
 0.5 0.5
 0.5 0.5
 0.5 0.5
 1.0 0.0
 0.5 0.5
 0.6666666666666666 0.33333333333333337
 0.0 1.0
 1.0 0.0
 0.5 0.5
 1.0 0.0
 0.5 0.5
 0.5 0.5
 0.5 0.5
 0.5 0.5
 0.5 0.5
 0.5 0.5
 0.5 0.5
 0.5 0.5
 0.5 0.5

8
 0.0 1.0
 0.8333333333333334 0.16666666666666663
 0.8 0.19999999999999996
 0.0 1.0

2
 0.0 1.0

32
 1.0 0.0
 0.75 0.25
 1.0 0.0
 0.16666666666666666 0.8333333333333334
 0.5 0.5
 0.0 1.0
 0.5 0.5
 0.0 1.0
 0.5 0.5
 1.0 0.0
 0.5 0.5
 0.5 0.5
 0.5 0.5
 0.5 0.5
 0.5 0.5
 0.5 0.5

4
 0.2777777777777778 0.7222222222222222
 0.0 1.0

4
 0.09090909090909091 0.9090909090909091
 0.1111111111111111 0.8888888888888888

4
 1.0 0.0
 0.8823529411764706 0.11764705882352944

8
 0.3333333333333333 0.6666666666666667
 1.0 0.0
 0.5 0.5
 1.0 0.0

4
 0.7777777777777778 0.2222222222222222
 1.0 0.0

2
 0.0 1.0

2
 0.4 0.6

8
 0.4 0.6
 0.0 1.0
 0.45454545454545453 0.5454545454545454
 0.6666666666666666 0.33333333333333337

4
 0.5 0.5
 0.45 0.55

128
 0.5 0.5
 0.5 0.5
 0.5 0.5
 0.5 0.5
 0.5 0.5
 0.5 0.5
 0.5 0.5
 0.5 0.5
 0.5 0.5
 0.5 0.5
 0.5 0.5
 0.5 0.5
 0.5 0.5
 0.5 0.5
 0.5 0.5
 0.5 0.5
 0.5 0.5
 0.5 0.5
 0.5 0.5
 0.5 0.5
 0.5 0.5
 0.5 0.5
 0.5 0.5
 0.0 1.0
 0.5 0.5
 0.5 0.5
 1.0 0.0
 0.5 0.5
 0.5 0.5
 0.5 0.5
 0.5 0.5
 0.0 1.0
 0.5 0.5
 0.5 0.5
 0.0 1.0
 0.5 0.5
 0.5 0.5
 0.5 0.5
 0.5 0.5
 0.5 0.5
 0.5 0.5
 0.5 0.5
 0.5 0.5
 0.5 0.5
 0.5 0.5
 0.5 0.5
 0.5 0.5
 0.5 0.5
 1.0 0.0
 0.5 0.5
 0.0 1.0
 0.5 0.5
 0.5 0.5
 1.0 0.0
 0.5 0.5
 1.0 0.0
 0.0 1.0
 0.5 0.5
 1.0 0.0
 0.5 0.5
 0.5 0.5
 0.5 0.5
 1.0 0.0
 0.5 0.5

2
 0.85 0.15000000000000002

4
 0.5 0.5
 0.45 0.55

32
 0.5 0.5
 0.5 0.5
 0.5 0.5
 1.0 0.0
 0.5 0.5
 0.5 0.5
 0.0 1.0
 0.14285714285714285 0.8571428571428572
 0.5 0.5
 0.5 0.5
 0.5 0.5
 0.0 1.0
 0.5 0.5
 0.5 0.5
 0.5 0.5
 1.0 0.0

4
 1.0 0.0
 0.0 1.0

16
 0.0 1.0
 0.0 1.0
 0.5 0.5
 0.2 0.8
 0.0 1.0
 1.0 0.0
 0.5 0.5
 0.0 1.0

4
 0.5 0.5
 0.1875 0.8125

4
 0.5 0.5
 0.6 0.4

16
 0.5 0.5
 0.5 0.5
 0.4 0.6
 0.0 1.0
 0.5 0.5
 0.5 0.5
 0.3333333333333333 0.6666666666666667
 1.0 0.0

8
 0.75 0.25
 0.16666666666666666 0.8333333333333334
 1.0 0.0
 1.0 0.0

4
 0.4444444444444444 0.5555555555555556
 1.0 0.0

8
 1.0 0.0
 0.3333333333333333 0.6666666666666667
 0.0 1.0
 0.3333333333333333 0.6666666666666667

16
 0.0 1.0
 0.5 0.5
 0.0 1.0
 0.5 0.5
 0.5 0.5
 0.5 0.5
 0.5 0.5
 1.0 0.0

4
 0.5 0.5
 1.0 0.0

16
 0.0 1.0
 0.0 1.0
 1.0 0.0
 0.25 0.75
 0.0 1.0
 1.0 0.0
 1.0 0.0
 0.5 0.5

16
 1.0 0.0
 0.5 0.5
 0.75 0.25
 0.5 0.5
 0.5 0.5
 1.0 0.0
 0.75 0.25
 0.5 0.5

32
 1.0 0.0
 0.0 1.0
 0.5 0.5
 0.5 0.5
 0.5 0.5
 0.5 0.5
 0.5 0.5
 0.5 0.5
 0.5833333333333334 0.41666666666666663
 0.4 0.6
 0.16666666666666666 0.8333333333333334
 0.5 0.5
 0.5 0.5
 0.0 1.0
 0.5 0.5
 0.5 0.5

16
 0.5 0.5
 0.5 0.5
 0.5 0.5
 0.5 0.5
 0.4 0.6
 0.75 0.25
 0.5 0.5
 0.0 1.0

32
 0.0 1.0
 0.625 0.375
 0.5 0.5
 0.5 0.5
 0.5 0.5
 1.0 0.0
 0.5 0.5
 0.0 1.0
 0.5 0.5
 0.5 0.5
 0.5 0.5
 0.0 1.0
 0.5 0.5
 0.5 0.5
 0.5 0.5
 0.5 0.5

4
 0.5555555555555556 0.4444444444444444
 1.0 0.0

64
 0.0 1.0
 0.8 0.19999999999999996
 0.0 1.0
 0.5 0.5
 0.0 1.0
 0.5 0.5
 0.5 0.5
 0.5 0.5
 0.36363636363636365 0.6363636363636364
 0.5 0.5
 0.0 1.0
 1.0 0.0
 0.5 0.5
 0.5 0.5
 0.5 0.5
 0.5 0.5
 0.5 0.5
 0.5 0.5
 0.5 0.5
 0.0 1.0
 0.5 0.5
 0.5 0.5
 0.5 0.5
 0.5 0.5
 0.5 0.5
 0.5 0.5
 0.5 0.5
 0.5 0.5
 0.5 0.5
 0.5 0.5
 0.5 0.5
 0.5 0.5

8
 0.0 1.0
 0.0 1.0
 0.6 0.4
 0.5 0.5

2
 0.9 0.09999999999999998

4
 0.0 1.0
 0.8333333333333334 0.16666666666666663

8
 0.1111111111111111 0.8888888888888888
 1.0 0.0
 0.0 1.0
 1.0 0.0

32
 1.0 0.0
 0.5 0.5
 1.0 0.0
 0.5 0.5
 0.0 1.0
 0.5 0.5
 0.5 0.5
 0.5 0.5
 0.5 0.5
 0.5 0.5
 0.6 0.4
 0.0 1.0
 1.0 0.0
 0.5 0.5
 0.5 0.5
 0.5 0.5

4
 0.0 1.0
 0.25 0.75

8
 0.4117647058823529 0.5882352941176471
 0.5 0.5
 0.3333333333333333 0.6666666666666667
 0.5 0.5

2
 0.9 0.09999999999999998

2
 0.25 0.75

8
 1.0 0.0
 0.5 0.5
 0.375 0.625
 0.0 1.0

16
 0.5 0.5
 0.5 0.5
 0.8 0.19999999999999996
 0.3333333333333333 0.6666666666666667
 0.5 0.5
 0.5 0.5
 0.0 1.0
 0.16666666666666666 0.8333333333333334

4
 0.55 0.44999999999999996
 0.5 0.5

16
 0.5 0.5
 0.5 0.5
 0.0 1.0
 0.3333333333333333 0.6666666666666667
 0.0 1.0
 1.0 0.0
 0.0 1.0
 1.0 0.0

16
 0.5 0.5
 0.5 0.5
 0.5 0.5
 0.5 0.5
 0.125 0.875
 0.0 1.0
 0.2222222222222222 0.7777777777777778
 0.0 1.0

8
 1.0 0.0
 0.6666666666666666 0.33333333333333337
 1.0 0.0
 0.18181818181818182 0.8181818181818181
